364
541
362
359
325
276
356
249
193
255
293
187
219
198
258
274
269
258
393
193
263
193
313
229
0
323
222
225
146
316
135
445
235
274
241
220
228
297
228
176
323
323
189
394
459
228
289
307
437
287
359
175
297
303
331
194
240
318
218
183
268
338
446
299
241
258
306
205
256
274
523
253
336
341
214
251
234
337
220
230
249
237
225
211
380
239
240
265
246
369
205
374
272
328
354
273
319
302
236
183
